#===============================================================================
# File written by pyfhiaims
# Wed Oct  8 16:16:20 2025
#===============================================================================
lattice_vector -5.918434120000001e+00 6.505351780000000e+00 6.504947880000000e+00
lattice_vector 5.918426640000000e+00 -6.505365080000000e+00 6.504952460000000e+00
lattice_vector 5.918427600000000e+00 6.505357180000000e+00 -6.504959160000000e+00
atom         2.959183194412e+00   1.626337161828e+00   1.626219788852e+00 Ti
atom         5.918396994412e+00   4.879015751828e+00  -1.626259791148e+00 Ti
atom         5.918396514412e+00  -1.626345378172e+00   4.878696018852e+00 Ti
atom         8.877610314412e+00   1.626333211828e+00   1.626216438852e+00 Ti
atom        -3.386558778784e-05   4.879013051828e+00   4.878693728852e+00 Ti
atom         2.959179934412e+00   8.131691641828e+00   1.626214148852e+00 Ti
atom         2.959179454412e+00   1.626330511828e+00   8.131169958852e+00 Ti
atom         5.918393254412e+00   4.879009101828e+00   4.878690378852e+00 Ti
atom         6.447011074329e-06   1.626337770646e+00   1.626253663335e+00 Ti
atom         2.959220247011e+00   4.879016360646e+00  -1.626225916665e+00 Ti
atom         2.959219767011e+00  -1.626344769354e+00   4.878729893335e+00 Ti
atom         5.918433567011e+00   1.626333820646e+00   1.626250313335e+00 Ti
atom        -2.959210612989e+00   4.879013660646e+00   4.878727603335e+00 Ti
atom         3.187011075934e-06   8.131692250646e+00   1.626248023335e+00 Ti
atom         2.707011074410e-06   1.626331120646e+00   8.131203833335e+00 Ti
atom         2.959216507011e+00   4.879009710646e+00   4.878724253335e+00 Ti
    initial_moment 1.000000000000
atom        -4.438821952600e+00   8.131690879836e+00   4.878707894849e+00 Ti
atom        -1.479608152600e+00   1.138436946984e+01   1.626228314849e+00 Ti
atom        -1.479608632600e+00   4.879008339836e+00   8.131184124849e+00 Ti
atom         1.479605167400e+00   8.131686929836e+00   4.878704544849e+00 Ti
atom        -1.479604892600e+00   4.879014989836e+00   1.626233954849e+00 Ti
atom         1.479608907400e+00   8.131693579836e+00  -1.626245625151e+00 Ti
atom         1.479608427400e+00   1.626332449836e+00   4.878710184849e+00 Ti
atom         4.438822227400e+00   4.879011039836e+00   1.626230604849e+00 Ti
atom        -4.438814587419e+00   4.879009826932e+00   8.131183360488e+00 Ti
atom        -1.479600787419e+00   8.131688416932e+00   4.878703780488e+00 Ti
atom        -1.479601267419e+00   1.626327286932e+00   1.138365959049e+01 Ti
atom         1.479612532581e+00   4.879005876932e+00   8.131180010488e+00 Ti
atom        -1.479597527419e+00   1.626333936932e+00   4.878709420488e+00 Ti
atom         1.479616272581e+00   4.879012526932e+00   1.626229840488e+00 Ti
atom         1.479615792581e+00  -1.626348603068e+00   8.131185650488e+00 Ti
atom         4.438829592581e+00   1.626329986932e+00   4.878706070488e+00 Ti
atom         1.481402093247e+00   1.626332488627e+00   3.533566948698e-01 O
atom         4.440615893247e+00   4.879011078627e+00  -2.899122885130e+00 O
atom         4.440615413247e+00  -1.626350051373e+00   3.605832924870e+00 O
atom         7.399829213247e+00   1.626328538627e+00   3.533533448698e-01 O
atom        -1.477814966753e+00   4.879008378627e+00   3.605830634870e+00 O
atom         1.481398833247e+00   8.131686968627e+00   3.533510548698e-01 O
atom         1.481398353247e+00   1.626325838627e+00   6.858306864870e+00 O
atom         4.440612153247e+00   4.879004428627e+00   3.605827284870e+00 O
atom         2.959213517186e+00   2.899182733410e+00  -1.628966199308e+00 O
atom         5.918427317186e+00   6.151861323410e+00  -4.881445779308e+00 O
atom         5.918426837186e+00  -3.534998065896e-01   1.623510030692e+00 O
atom         8.877640637186e+00   2.899178783410e+00  -1.628969549308e+00 O
atom        -3.542814396518e-06   6.151858623410e+00   1.623507740692e+00 O
atom         2.959210257186e+00   9.404537213410e+00  -1.628971839308e+00 O
atom         2.959209777186e+00   2.899176083410e+00   4.875983970692e+00 O
atom         5.918423577186e+00   6.151854673410e+00   1.623504390692e+00 O
atom         7.396241613951e+00   4.879013562195e+00  -2.899129469341e+00 O
atom         4.437027813951e+00   1.626334972195e+00   3.533501106594e-01 O
atom         1.035545493395e+01   1.626331022195e+00   3.533467606594e-01 O
atom         7.396241133951e+00  -1.626347567805e+00   3.605826340659e+00 O
atom         4.437024553951e+00   8.131689452195e+00   3.533444706594e-01 O
atom         1.477810753951e+00   4.879010862195e+00   3.605824050659e+00 O
atom         7.396237873951e+00   4.879006912195e+00   3.605820700659e+00 O
atom         4.437024073951e+00   1.626328322195e+00   6.858300280659e+00 O
atom        -1.468114624092e-06   3.606170265065e+00   1.623505817104e+00 O
atom         2.959212331885e+00   6.858848855065e+00  -1.628973762896e+00 O
atom         2.959211851885e+00   3.534877250647e-01   4.875982047104e+00 O
atom         5.918425651885e+00   3.606166315065e+00   1.623502467104e+00 O
atom        -2.959218528115e+00   6.858846155065e+00   4.875979757104e+00 O
atom        -4.728114623376e-06   1.011152474506e+01   1.623500177104e+00 O
atom        -5.208114624233e-06   3.606163615065e+00   8.128455987104e+00 O
atom         2.959208591885e+00   6.858842205065e+00   4.875976407104e+00 O
atom         2.959206319900e+00  -3.534998863453e-01   1.628963797158e+00 O
atom         5.918420119900e+00   2.899178703655e+00  -1.623515782842e+00 O
atom         5.918419639900e+00  -3.606182426345e+00   4.881440027158e+00 O
atom         8.877633439900e+00  -3.535038363453e-01   1.628960447158e+00 O
atom        -1.074009989854e-05   2.899176003655e+00   4.881437737158e+00 O
atom         2.959203059900e+00   6.151854593655e+00   1.628958157158e+00 O
atom         2.959202579900e+00  -3.535065363453e-01   8.133913967158e+00 O
atom         5.918416379900e+00   2.899172053655e+00   4.881434387158e+00 O
atom        -8.043965774973e-06   3.534910606219e-01   4.881433699458e+00 O
atom         2.959205756034e+00   3.606169650622e+00   1.628954119458e+00 O
atom         2.959205276034e+00  -2.899191479378e+00   8.133909929458e+00 O
atom         5.918419076034e+00   3.534871106219e-01   4.881430349458e+00 O
atom        -2.959225103966e+00   3.606166950622e+00   8.133907639458e+00 O
atom        -1.130396577453e-05   6.858845540622e+00   4.881428059458e+00 O
atom        -1.178396577489e-05   3.534844106219e-01   1.138638386946e+01 O
atom         2.959202016034e+00   3.606163000622e+00   8.133904289458e+00 O
atom        -1.477812042670e+00   1.626338106237e+00   2.899121617703e+00 O
atom         1.481401757330e+00   4.879016696237e+00  -3.533579622973e-01 O
atom         1.481401277330e+00  -1.626344433763e+00   6.151597847703e+00 O
atom         4.440615077330e+00   1.626334156237e+00   2.899118267703e+00 O
atom        -4.437029102670e+00   4.879013996237e+00   6.151595557703e+00 O
atom        -1.477815302670e+00   8.131692586237e+00   2.899115977703e+00 O
atom        -1.477815782670e+00   1.626331456237e+00   9.404071787703e+00 O
atom         1.481398017330e+00   4.879010046237e+00   6.151592207703e+00 O
atom         1.477811369849e+00   1.626339223683e+00   2.899113472307e+00 O
atom         4.437025169849e+00   4.879017813683e+00  -3.533661076933e-01 O
atom         4.437024689849e+00  -1.626343316317e+00   6.151589702307e+00 O
atom         7.396238489849e+00   1.626335273683e+00   2.899110122307e+00 O
atom        -1.481405690151e+00   4.879015113683e+00   6.151587412307e+00 O
atom         1.477808109849e+00   8.131693703683e+00   2.899107832307e+00 O
atom         1.477807629849e+00   1.626332573683e+00   9.404063642307e+00 O
atom         4.437021429849e+00   4.879011163683e+00   6.151584062307e+00 O